SLURM_JOB_ID: 55294442
SLURM_JOB_USER: vsc34888
SLURM_JOB_ACCOUNT: lp_elect_gen_modeling
SLURM_JOB_NAME: 3-bus_full_MILP_DC
SLURM_CLUSTER_NAME: genius
SLURM_JOB_PARTITION: batch
SLURM_NNODES: 1
SLURM_NODELIST: r22i27n15
SLURM_JOB_CPUS_PER_NODE: 36
Date: Wed Oct 11 17:16:18 CEST 2023
Walltime: 01-12:00:00
========================================================================
Activation OK
Starting runs

 #### Academic research license - for non-commercial use only #### 

3-bus
/lustre1/scratch/348/vsc34888/JointResearch/05.Models/06.Benchmarking/A.The_full_year_MILP
gurobi
['oSN_Main_DCOPF.py', '--case', '3-bus']
Namespace(case='3-bus', dir='/lustre1/scratch/348/vsc34888/JointResearch/05.Models/06.Benchmarking/A.The_full_year_MILP', solver='gurobi')
Namespace(case='3-bus', dir='/lustre1/scratch/348/vsc34888/JointResearch/05.Models/06.Benchmarking/A.The_full_year_MILP', solver='gurobi')
Reading    input data                 ...  0 s
Setting up input data                 ...  2 s
Generating objective function         ...  2 s
Generating operation & investment     ...  0 s
Generating balance                    ...  3 s
Generating storage operation          ...  0 s
Generating generation commitment      ...  1 s
Generating generation capacity        ...  0 s
Generating network    capacity        ...  3 s
Generating network    constraints     ...  9 s
Econometric analysis  constraints     ...  0 s
Set parameter Username
Set parameter TokenServer to value "SET-S-ME-LM3.luna.kuleuven.be"
Read LP format model from file /tmp/tmpb934cts8.pyomo.lp
Reading time = 1.51 seconds
x1: 576579 rows, 258641 columns, 1658234 nonzeros
Set parameter QCPDual to value 1
Set parameter LogFile to value "/lustre1/scratch/348/vsc34888/JointResearch/05.Models/06.Benchmarking/A.The_full_year_MILP/3-bus/openStarNet_3-bus.log"
Set parameter Method to value 2
Set parameter MIPFocus to value 1
Set parameter Presolve to value 2
Set parameter RINS to value 100
Set parameter MIPGap to value 0.01
Set parameter Threads to value 36
Set parameter TimeLimit to value 604800
Set parameter IterationLimit to value 760000000
Gurobi Optimizer version 9.5.0 build v9.5.0rc5 (linux64)
Thread count: 36 physical cores, 36 logical processors, using up to 36 threads
Optimize a model with 576579 rows, 258641 columns and 1658234 nonzeros
Model fingerprint: 0x6276aeac
Variable types: 258632 continuous, 9 integer (9 binary)
Coefficient statistics:
  Matrix range     [1e-03, 8e+02]
  Objective range  [1e+00, 1e+00]
  Bounds range     [7e-06, 2e+00]
  RHS range        [7e-06, 1e+00]
Presolve removed 209667 rows and 61156 columns
Presolve time: 1.88s
Presolved: 366912 rows, 197485 columns, 1298212 nonzeros
Variable types: 197476 continuous, 9 integer (9 binary)
Root relaxation presolved: 366912 rows, 197485 columns, 1298212 nonzeros

Root barrier log...

Ordering time: 0.07s

Barrier statistics:
 Dense cols : 9
 AA' NZ     : 3.250e+06
 Factor NZ  : 5.530e+06 (roughly 300 MB of memory)
 Factor Ops : 1.136e+08 (less than 1 second per iteration)
 Threads    : 35

                  Objective                Residual
Iter       Primal          Dual         Primal    Dual     Compl     Time
   0   3.85511159e+05 -4.54435200e+07  1.55e+01 2.83e-01  9.84e+01     5s
   1   2.78742289e+04 -9.38444769e+05  1.07e+00 1.47e-08  3.33e+00     5s
   2   3.32637280e+03 -3.01478065e+05  3.67e-02 7.44e-09  4.62e-01     5s
   3   1.02387527e+03 -8.84814950e+03  6.81e-04 6.04e-10  1.39e-02     5s
   4   2.45867000e+02 -1.96018471e+03  5.40e-05 1.21e-10  3.11e-03     5s
   5   1.89170142e+02 -6.68805888e+02  3.83e-05 3.83e-11  1.21e-03     5s
   6   1.24334592e+02 -2.22719994e+02  1.78e-05 1.32e-11  4.89e-04     6s
   7   9.62821556e+01 -3.03868831e+01  8.00e-06 4.01e-12  1.79e-04     6s
   8   7.79306305e+01  3.67500710e+01  2.35e-06 1.34e-12  5.80e-05     6s
   9   6.96613232e+01  6.26778805e+01  6.99e-07 1.85e-13  9.84e-06     6s
  10   6.94374055e+01  6.33269748e+01  6.63e-07 2.70e-13  8.61e-06     6s
  11   6.89997264e+01  6.33734995e+01  5.54e-07 1.74e-13  7.93e-06     6s
  12   6.86645993e+01  6.35056708e+01  4.89e-07 2.63e-13  7.27e-06     7s
  13   6.83515155e+01  6.36664859e+01  4.23e-07 3.13e-13  6.60e-06     7s
  14   6.76747868e+01  6.41461810e+01  2.88e-07 5.51e-14  4.97e-06     7s
  15   6.72820752e+01  6.44449839e+01  2.19e-07 1.10e-13  4.00e-06     7s
  16   6.70513316e+01  6.45215362e+01  1.77e-07 2.66e-13  3.57e-06     7s
  17   6.69677870e+01  6.46632692e+01  1.63e-07 1.63e-13  3.25e-06     8s
  18   6.68522683e+01  6.48289561e+01  1.40e-07 2.06e-13  2.85e-06     8s
  19   6.67697848e+01  6.49220101e+01  1.25e-07 2.95e-13  2.60e-06     8s
  20   6.66922017e+01  6.49875119e+01  1.08e-07 8.70e-14  2.40e-06     8s
  21   6.65880765e+01  6.51646578e+01  8.79e-08 4.09e-13  2.01e-06     9s
  22   6.65278729e+01  6.52366956e+01  7.73e-08 3.84e-13  1.82e-06     9s
  23   6.64953646e+01  6.52820666e+01  6.99e-08 7.28e-14  1.71e-06     9s
  24   6.64350001e+01  6.53762805e+01  5.88e-08 1.60e-13  1.49e-06    10s
  25   6.63963055e+01  6.54259896e+01  5.14e-08 2.56e-13  1.37e-06    10s
  26   6.63346214e+01  6.54826826e+01  3.73e-08 5.83e-13  1.20e-06    10s
  27   6.62632384e+01  6.55615403e+01  2.39e-08 1.10e-13  9.89e-07    11s
  28   6.62308103e+01  6.56303464e+01  1.79e-08 1.99e-13  8.46e-07    11s
  29   6.62152514e+01  6.57216459e+01  1.52e-08 7.64e-14  6.96e-07    11s
  30   6.61889511e+01  6.57634561e+01  1.07e-08 1.53e-13  6.00e-07    11s
  31   6.61827085e+01  6.57906115e+01  9.68e-09 1.28e-13  5.53e-07    12s
  32   6.61770728e+01  6.58096569e+01  8.73e-09 1.10e-13  5.18e-07    12s
  33   6.61634184e+01  6.58444179e+01  6.53e-09 2.49e-13  4.50e-07    12s
  34   6.61491624e+01  6.58833899e+01  4.24e-09 2.06e-13  3.75e-07    13s
  35   6.61405903e+01  6.59078683e+01  2.96e-09 1.99e-13  3.28e-07    13s
  36   6.61369057e+01  6.59468411e+01  2.41e-09 1.28e-13  2.68e-07    13s
  37   6.61315379e+01  6.59545323e+01  1.96e-09 5.68e-14  2.49e-07    14s
  38   6.61290136e+01  6.60220998e+01  1.51e-09 3.41e-13  1.51e-07    14s
  39   6.61261497e+01  6.60338959e+01  1.10e-09 9.95e-14  1.30e-07    14s
  40   6.61239467e+01  6.60413621e+01  7.82e-10 1.46e-13  1.16e-07    14s
  41   6.61215429e+01  6.60506445e+01  7.08e-10 1.99e-13  9.99e-08    15s
  42   6.61198226e+01  6.60633059e+01  7.97e-10 1.87e-14  7.97e-08    15s
  43   6.61188672e+01  6.60922391e+01  3.89e-10 2.31e-13  3.75e-08    15s
  44   6.61184428e+01  6.61011408e+01  3.17e-10 1.33e-13  2.44e-08    16s
  45   6.61180537e+01  6.61173776e+01  1.34e-10 2.20e-13  9.53e-10    16s
  46   6.61178674e+01  6.61176667e+01  4.74e-10 2.81e-13  2.83e-10    16s
  47   6.61177115e+01  6.61177062e+01  8.16e-12 2.20e-13  7.42e-12    16s
  48   6.61177083e+01  6.61177083e+01  3.13e-09 3.25e-12  7.40e-17    17s

Barrier solved model in 48 iterations and 16.58 seconds (12.80 work units)
Optimal objective 6.61177083e+01


Root crossover log...

   52417 DPushes remaining with DInf 0.0000000e+00                17s
       0 DPushes remaining with DInf 0.0000000e+00                17s

   34640 PPushes remaining with PInf 0.0000000e+00                17s
       0 PPushes remaining with PInf 0.0000000e+00                18s

  Push phase complete: Pinf 0.0000000e+00, Dinf 5.3952502e-14     18s


Root simplex log...

Iteration    Objective       Primal Inf.    Dual Inf.      Time
   34953    6.6117708e+01   0.000000e+00   0.000000e+00     19s
   34953    6.6117708e+01   0.000000e+00   0.000000e+00     20s

Root relaxation: objective 6.611771e+01, 34953 iterations, 16.50 seconds (15.47 work units)

    Nodes    |    Current Node    |     Objective Bounds      |     Work
 Expl Unexpl |  Obj  Depth IntInf | Incumbent    BestBd   Gap | It/Node Time

     0     0   66.11771    0    3          -   66.11771      -     -   19s
H    0     0                      75.4469126   66.11771  12.4%     -   21s
     0     0   66.11771    0    1   75.44691   66.11771  12.4%     -   24s
     0     0   66.11771    0    2   75.44691   66.11771  12.4%     -   27s
     0     0   66.11771    0    2   75.44691   66.11771  12.4%     -   31s
H    0     0                      67.1562234   66.11771  1.55%     -   33s
     0     0   66.11771    0    2   67.15622   66.11771  1.55%     -   36s
     0     0   66.11771    0    2   67.15622   66.11771  1.55%     -   38s
     0     2   66.11771    0    2   67.15622   66.11771  1.55%     -   56s
     3     4   66.35057    2    2   67.15622   66.11989  1.54%  7280   89s
     5     4   66.35057    3    2   67.15622   66.35057  1.20%  7209   92s
    13     2     cutoff    5        67.15622   66.35113  1.20%  8215  148s

Cutting planes:
  Gomory: 3

Explored 15 nodes (164123 simplex iterations) in 148.69 seconds (397.73 work units)
Thread count was 36 (of 36 available processors)

Solution count 2: 67.1562 75.4469 

Optimal solution found (tolerance 1.00e-02)
Best objective 6.715622341163e+01, best bound 6.714482475261e+01, gap 0.0170%
Termination condition:  optimal
# ==========================================================
# = Solver Results                                         =
# ==========================================================
# ----------------------------------------------------------
#   Problem Information
# ----------------------------------------------------------
Problem: 
- Name: x1
  Lower bound: 67.14482475261326
  Upper bound: 67.15622341162539
  Number of objectives: 1
  Number of constraints: 576579
  Number of variables: 258641
  Number of binary variables: 9
  Number of integer variables: 9
  Number of continuous variables: 258632
  Number of nonzeros: 1658234
  Sense: minimize
# ----------------------------------------------------------
#   Solver Information
# ----------------------------------------------------------
Solver: 
- Status: ok
  Return code: 0
  Message: Model was solved to optimality (subject to tolerances), and an optimal solution is available.
  Termination condition: optimal
  Termination message: Model was solved to optimality (subject to tolerances), and an optimal solution is available.
  Wall time: 148.69694209098816
  Error rc: 0
  Time: 152.2862536907196
# ----------------------------------------------------------
#   Solution Information
# ----------------------------------------------------------
Solution: 
- number of solutions: 0
  number of solutions displayed: 0
# ============================================================================= #
# ============================================================================= #
fixing: vNetworkInvest[2030,Node_1,Node_2,cac1]
fixing: vNetworkInvest[2030,Node_2,Node_3,cac1]
fixing: vNetworkInvest[2030,Node_2,Node_3,cac3]
fixing: vNetworkInvest[2030,Node_1,Node_2,cac3]
fixing: vNetworkInvest[2030,Node_2,Node_3,cac2]
fixing: vNetworkInvest[2030,Node_1,Node_3,cac3]
fixing: vNetworkInvest[2030,Node_1,Node_3,cac1]
fixing: vNetworkInvest[2030,Node_1,Node_2,cac2]
fixing: vNetworkInvest[2030,Node_1,Node_3,cac2]
Number of fixed variables:  9
# ============================================================================= #
# ============================================================================= #
WARNING: Implicitly replacing the Component attribute dual (type=<class
'pyomo.core.base.suffix.Suffix'>) on block 'openStarNet - Open Version of the
StartNetLite Model (Long Term Transmission Expansion Planning) - Version 1.0.0
- January 16, 2023' with a new Component (type=<class
'pyomo.core.base.suffix.Suffix'>). This is usually indicative of a modelling
error. To avoid this warning, use block.del_component() and
block.add_component().
WARNING: Implicitly replacing the Component attribute rc (type=<class
'pyomo.core.base.suffix.Suffix'>) on block 'openStarNet - Open Version of the
StartNetLite Model (Long Term Transmission Expansion Planning) - Version 1.0.0
- January 16, 2023' with a new Component (type=<class
'pyomo.core.base.suffix.Suffix'>). This is usually indicative of a modelling
error. To avoid this warning, use block.del_component() and
block.add_component().
# ==========================================================
# = Solver Results                                         =
# ==========================================================
# ----------------------------------------------------------
#   Problem Information
# ----------------------------------------------------------
Problem: 
- Name: x1
  Lower bound: 67.15622341162528
  Upper bound: 67.15622341162528
  Number of objectives: 1
  Number of constraints: 576579
  Number of variables: 258632
  Number of binary variables: 0
  Number of integer variables: 0
  Number of continuous variables: 258632
  Number of nonzeros: 1343729
  Sense: minimize
# ----------------------------------------------------------
#   Solver Information
# ----------------------------------------------------------
Solver: 
- Status: ok
  Return code: 0
  Message: Model was solved to optimality (subject to tolerances), and an optimal solution is available.
  Termination condition: optimal
  Termination message: Model was solved to optimality (subject to tolerances), and an optimal solution is available.
  Wall time: 1.628553867340088
  Error rc: 0
  Time: 6.472885608673096
# ----------------------------------------------------------
#   Solution Information
# ----------------------------------------------------------
Solution: 
- number of solutions: 0
  number of solutions displayed: 0
Solving                               ...  190 s
Objective function value                   67.16 M€
Objective function value                   67.15622341162528
Writing         cost summary results  ...  0 s
Writing           investment results  ...  0 s
Writing       energy balance results  ...  4 s
Writing    network operation results  ...  1 s
Writing generation operation results  ...  2 s
Writing        ESS operation results  ...  0 s
Writing             economic results  ...  0 s

 #### Academic research license - for non-commercial use only #### 

Elapsed time: 224 seconds
